400
750
594
592
591
587
587
587
585
582
581
578
576
575
575
570
570
569
569
567
566
566
563
563
563
562
562
561
560
559
559
558
558
555
554
553
553
553
551
547
546
545
545
544
544
544
543
540
539
538
537
536
533
531
531
530
526
526
525
524
521
519
519
516
513
513
511
511
511
510
508
508
508
507
507
507
504
501
500
497
497
494
491
490
490
490
489
483
482
482
481
479
479
478
477
477
477
476
476
476
475
475
474
471
470
470
465
465
464
461
460
458
458
456
454
453
452
452
451
448
448
447
447
446
445
442
439
437
436
435
434
434
431
430
430
429
429
427
427
423
421
421
421
417
416
414
413
412
409
408
405
404
402
401
400
398
398
396
394
394
393
393
388
383
382
382
380
380
380
380
380
380
378
378
378
378
378
377
377
373
371
368
367
364
363
362
361
361
360
359
358
357
357
355
354
354
353
352
351
350
349
347
346
343
342
341
340
339
338
337
336
336
335
335
332
331
326
324
323
322
318
318
317
314
313
311
310
310
307
301
300
298
298
297
295
295
294
293
292
290
289
288
286
285
285
284
284
283
283
282
281
281
277
273
270
269
269
268
266
266
266
266
265
265
264
262
262
261
256
256
255
252
250
248
245
245
244
244
243
243
242
240
238
238
237
236
236
235
234
230
229
227
226
226
224
222
222
220
220
216
215
215
215
213
213
212
211
207
204
202
201
199
198
197
197
194
194
193
192
192
192
187
185
177
175
175
173
173
172
172
171
168
166
163
160
158
158
157
156
156
156
156
155
154
153
153
152
152
150
145
144
142
142
139
139
136
135
132
132
131
130
129
128
128
128
125
124
121
121
120
119
119
117
113
110
108
108
108
107
107
106
106
105
101
99
97
95
95
95
94
89
88
87
85
84
82
81
81
80
79
77
75
